0 57 
1 60 
2 61 
3 61 
4 61 
5 61 
6 61 
7 60 
8 58 
9 55 
10 53 
11 51 
12 50 
13 49 
14 47 
15 46 
16 45 
17 44 
18 46 
19 44 
20 43 
21 44 
22 43 
23 41 
24 40 
25 40 
26 38 
27 41 
28 41 
29 40 
30 38 
31 39 
32 39 
33 38 
34 39 
35 37 
36 37 
37 37 
38 37 
39 37 
40 35 
41 34 
42 35 
43 33 
44 31 
45 31 
46 29 
47 31 
48 30 
49 29 
50 30 
51 28 
52 24 
53 22 
54 22 
55 24 
56 24 
57 22 
58 20 
59 20 
60 19 
61 19 
62 17 
63 17 
64 17 
65 17 
66 14 
67 13 
68 11 
69 10 
70 9 
71 6 
72 7 
73 7 
74 6 
75 6 
76 3 
77 2 
78 2 
79 0 
80 0 

